2
1000 3
260
168 1 4
169 1 2
170 1 2
171 1 1
172 1 4
173 1 2
174 1 1
175 1 2
176 1 1
179 1 2
180 1 2
181 1 1
182 1 1
183 1 2
184 1 4
185 1 1
186 1 2
188 1 2
189 1 2
190 1 1
191 1 1
192 1 1
194 1 2
195 1 2
196 1 5
198 1 1
200 1 3
201 1 2
203 1 3
204 1 2
205 1 3
206 1 2
207 1 1
208 1 2
210 1 3
211 1 2
212 1 1
213 1 1
214 1 2
215 1 1
217 1 1
218 1 4
219 1 1
221 1 1
222 1 3
224 1 4
225 1 1
226 1 1
227 1 3
228 1 1
229 1 3
231 1 3
232 1 1
234 1 1
235 1 2
236 1 2
237 1 1
238 1 3
241 1 1
243 1 1
244 1 1
245 1 1
247 1 1
249 1 1
250 1 1
251 1 2
253 1 3
254 1 2
255 1 1
256 1 3
258 1 3
259 1 2
261 1 1
262 1 3
263 1 3
265 1 2
266 1 1
267 1 2
268 1 2
269 1 2
270 1 4
271 1 2
273 1 1
275 1 4
276 1 1
278 1 2
279 1 2
282 1 2
283 1 2
284 1 1
285 1 2
288 1 1
289 1 1
290 1 2
291 1 1
292 1 1
293 1 1
294 1 1
295 1 1
296 1 2
300 1 1
303 1 1
304 1 1
305 1 2
306 1 1
307 1 1
308 1 1
309 1 1
310 1 2
311 1 1
312 1 1
313 1 3
314 1 2
315 1 2
317 1 1
318 1 1
319 1 4
320 1 1
322 1 3
323 1 2
324 1 2
325 1 1
327 1 2
328 1 1
329 1 2
331 1 2
332 1 3
333 1 3
334 1 4
335 1 2
337 1 2
338 1 1
339 1 1
340 1 1
341 1 3
342 1 1
344 1 3
345 1 1
347 1 2
348 1 1
349 1 3
351 1 1
352 1 2
353 1 1
355 1 4
357 1 3
358 1 1
359 1 2
360 1 2
363 1 1
364 1 1
366 1 1
369 1 2
370 1 4
371 1 3
373 1 4
374 1 2
375 1 1
377 1 3
378 1 2
379 1 2
380 1 2
381 1 1
382 1 2
383 1 1
384 1 2
385 1 2
387 1 3
388 1 2
389 1 1
390 1 1
391 1 1
392 1 1
393 1 3
394 1 1
395 1 2
396 1 2
397 1 1
398 1 1
400 1 2
401 1 5
402 1 4
404 1 1
405 1 2
406 1 1
407 1 1
408 1 3
409 1 1
410 1 2
411 1 2
414 1 3
415 1 2
416 1 1
417 1 7
418 1 2
419 1 1
420 1 2
421 1 1
423 1 4
424 1 2
425 1 2
426 1 1
427 1 2
428 1 7
429 1 1
430 1 2
431 1 3
432 1 2
433 1 2
434 1 4
435 1 3
436 1 1
437 1 2
438 1 3
440 1 1
441 1 3
443 1 1
444 1 1
445 1 2
446 1 2
447 1 1
448 1 1
449 1 5
450 1 1
451 1 2
452 1 1
453 1 5
454 1 2
455 1 1
456 1 2
457 1 2
458 1 1
459 1 2
460 1 1
461 1 3
462 1 5
464 1 1
466 1 1
467 1 1
469 1 1
471 1 2
472 1 1
473 1 2
474 1 1
475 1 1
476 1 1
478 1 2
479 1 1
483 1 1
484 1 3
485 1 2
486 1 3
487 1 3
489 1 1
490 1 4
491 1 1
492 1 2
493 1 2
494 1 1
495 1 1
